c read Graph
c width = 293
c time = 157 ms
c width = 25
c time = 366 ms
c width = 23
c time = 487 ms
c width = 22
c time = 707 ms
c width = 21
c time = 2846 ms
c width = 21
c time = 4964 ms
s td 248 22 306
b 1 1 2 19
b 2 2 3 19 20
b 3 16 17 35 36
b 4 3 19 20 37
b 5 16 35 36 54
b 6 253 271 272 290
b 7 270 287 288 305
b 8 253 272 290 291
b 9 270 287 304 305
b 10 3 4 5 22
b 11 3 5 21 22 38 55
b 12 5 21 22 38 40 55 57
b 13 5 22 38 40 55 57 74
b 14 5 22 40 55 57 74 91
b 15 5 22 24 40 41 57 74 91
b 16 5 24 40 41 57 59 74 76 91
b 17 5 24 41 57 59 74 76 91 93
b 18 5 24 41 59 74 76 91 93 110
b 19 5 24 41 43 59 60 76 91 93 110
b 20 24 41 42 43 60
b 21 5 24 43 59 60 76 79 91 93 97 110 112 114 131
b 22 5 24 43 60 62 79 91 93 97 110 112 114 131
b 23 5 24 43 62 79 91 93 97 110 112 114 131 148 163 165 182
b 24 91 93 110 112 129 131 148 163 165 182
b 25 91 110 129 146 148 163 165 182
b 26 146 163 164 165 182
b 27 129 146 147 148 165
b 28 91 110 127 129 146 163
b 29 91 109 110 127
b 30 127 145 146 163
b 31 110 127 128 129 146
b 32 93 110 111 112 129
b 33 112 129 130 131 148
b 34 5 9 24 28 43 47 62 66 79 83 97 100 114 116 117 131 148 163 165 182
b 35 5 9 24 28 43 47 62 66 79 81 83 97 100 116 117
b 36 62 79 81 97 98 100 116 117
b 37 62 79 80 81 98
b 38 81 98 99 100 117
b 39 5 9 24 28 43 45 47 62 66 81 83 100
b 40 5 9 24 26 28 43 45 62
b 41 26 43 44 45 62
b 42 9 26 27 28 45
b 43 5 7 9 24 26 43
b 44 7 8 9 26
b 45 7 24 25 26 43
b 46 5 6 7 24
b 47 28 45 47 62 64 66 81 83 100
b 48 45 62 63 64 81
b 49 47 64 65 66 83
b 50 64 81 82 83 100
b 51 28 45 46 47 64
b 52 9 28 47 66 83 97 100 114 116 117 131 133 148 163 165 182
b 53 97 114 115 116 133
b 54 9 28 47 66 83 85 100 104 114 116 117 123 131 133 142 148 161 163 165 180 182
b 55 66 83 85 100 104 114 116 117 119 121 123 131 133 138 142 148 161 163 165 180 182
b 56 66 83 85 100 102 104 119 121 138
b 57 102 119 120 121 138
b 58 83 100 101 102 119
b 59 85 102 103 104 121
b 60 66 83 84 85 102
b 61 100 104 114 116 117 119 121 123 131 133 138 142 148 157 159 161 163 165 176 180 182
b 62 104 121 123 138 140 142 157 159 176
b 63 104 121 122 123 140
b 64 123 140 141 142 159
b 65 121 138 139 140 157
b 66 140 157 158 159 176
b 67 9 13 28 32 47 49 66 85 104 123 142 161 180
b 68 13 32 49 66 85 89 104 106 108 123 142 161 180
b 69 13 32 49 66 85 87 89 104 106 108 123
b 70 13 32 49 66 68 85 87 89 104 106 108
b 71 49 66 67 68 85
b 72 13 32 49 68 70 87 89 106 108
b 73 13 32 49 51 68 70 87 89 108
b 74 32 49 50 51 68
b 75 51 68 69 70 87
b 76 13 32 51 70 72 89 108
b 77 72 89 90 108
b 78 13 15 32 51 70 72 89
b 79 13 14 15 32
b 80 15 32 51 53 70 72 89
b 81 15 32 34 51 53 70 72
b 82 15 32 33 34 51
b 83 15 34 53 54 72
b 84 15 16 34 53 54
b 85 16 34 35 53 54
b 86 34 51 52 53 70
b 87 53 70 71 72 89
b 88 70 87 88 89 106
b 89 68 85 86 87 104
b 90 87 104 105 106 123
b 91 89 106 108 123 125 142 161 180
b 92 106 123 124 125 142
b 93 89 106 107 108 125
b 94 108 125 142 144 161 180
b 95 108 125 126 144
b 96 144 161 162 180
b 97 125 142 143 144 161
b 98 9 13 28 30 32 47 49 66
b 99 30 47 48 49 66
b 100 13 30 31 32 49
b 101 9 11 13 28 30 47
b 102 9 10 11 28
b 103 11 28 29 30 47
b 104 11 12 13 30
b 105 43 60 61 62 79
b 106 59 60 76 79 93 95 97 112 114 131
b 107 59 60 76 78 79 95 97 114
b 108 59 76 77 78 95
b 109 78 95 96 97 114
b 110 76 93 94 95 112
b 111 95 112 113 114 131
b 112 74 91 92 93 110
b 113 57 74 75 76 93
b 114 40 57 58 59 76
b 115 5 22 23 24 41
b 116 55 73 74 91
b 117 38 55 56 57 74
b 118 21 38 39 40 57
b 119 3 21 37 38 55
b 120 3 20 21 37 38
b 121 100 117 118 119 136
b 122 171 188 189 190 207
b 123 154 171 172 173 190
b 124 119 136 138 154 155 157 173 174
b 125 100 114 116 117 119 131 133 136 138 142 148 157 159 161 163 165 176 180 182
b 126 142 148 157 159 161 163 165 167 173 174 176 180 182 186 188 190 205 207 224
b 127 142 148 157 159 161 163 165 167 171 173 174 176 180 182 186 188 190 205 207
b 128 142 148 154 157 159 161 163 165 167 171 173 174 176 180 182 186 188 190 205
b 129 114 116 117 119 131 133 136 138 142 148 154 157 159 161 163 165 173 174 176 180 182
b 130 114 116 117 131 133 136 142 148 152 154 157 159 161 163 165 171 173 174 176 180 182
b 131 114 131 133 142 148 152 154 157 159 161 163 165 167 171 173 174 176 180 182 186 188 205
b 132 142 148 152 154 157 159 161 163 165 167 171 173 174 176 180 182 186 188 205
b 133 116 117 133 135 136 152 154 171
b 134 135 152 153 154 171
b 135 116 133 134 135 152
b 136 138 155 156 157 174
b 137 119 136 137 138 155
b 138 142 148 157 159 161 163 165 167 173 174 176 180 182 186 190 205 207 224 243 262 279 298
b 139 142 157 159 161 173 174 176 180 190 193 207 224 243 262 279 298
b 140 157 174 175 176 193
b 141 142 159 161 173 174 176 180 190 193 207 211 224 228 243 245 262 279 298
b 142 173 174 190 193 207 209 211 224 228 243 245 262
b 143 173 174 190 192 193 209 211 228
b 144 173 190 191 192 209
b 145 192 209 210 211 228
b 146 190 207 209 224 226 228 243 245 262
b 147 207 224 225 226 243
b 148 190 207 208 209 226
b 149 209 226 227 228 245
b 150 226 243 244 245 262
b 151 142 159 161 176 180 193 195 211 214 228 233 245 252 262 279 298
b 152 176 193 195 211 214 228 233 245 252 262 264 279 283 298 302
b 153 245 262 264 279 281 283 298 302
b 154 262 279 280 281 298
b 155 264 281 283 298 300 302
b 156 281 298 299 300
b 157 264 281 282 283 300
b 158 283 300 301 302
b 159 245 262 263 264 281
b 160 176 193 195 211 214 228 230 231 233 245 252 264 283 302
b 161 211 214 228 230 231 233 245 247 252 264 283 302
b 162 211 228 229 230 247
b 163 228 245 246 247 264
b 164 214 230 231 233 247 252 264 266 283 302
b 165 214 230 231 233 247 249 252 266 283 302
b 166 230 247 248 249 266
b 167 214 231 233 249 250 252 266 283 302
b 168 214 231 232 233 250
b 169 233 249 250 252 266 283 285 302
b 170 233 249 250 252 266 268 285 302
b 171 249 266 267 268 285
b 172 233 250 252 268 269 285 302
b 173 233 250 251 252 269
b 174 252 268 269 285 302 304
b 175 285 302 303 304
b 176 252 268 269 285 286 304
b 177 252 269 270 286 304
b 178 269 270 286 287 304
b 179 266 283 284 285 302
b 180 247 264 265 266 283
b 181 176 193 195 211 212 214 230 231
b 182 195 212 213 214 231
b 183 176 193 194 195 212
b 184 142 159 161 176 178 180 195 214 233 252
b 185 161 178 180 195 197 214 233 252
b 186 178 195 196 197 214
b 187 180 197 214 216 233 252
b 188 180 197 198 216
b 189 216 233 234 252
b 190 197 214 215 216 233
b 191 161 178 179 180 197
b 192 159 176 177 178 195
b 193 142 159 160 161 178
b 194 148 163 165 167 182 186 205 224 241 243 258 262 275 279 294 298
b 195 224 241 243 258 260 262 275 279 294 298
b 196 241 258 260 275 277 279 294 298
b 197 241 258 259 260 277
b 198 258 275 276 277 294
b 199 260 277 279 294 296 298
b 200 277 294 295 296
b 201 279 296 297 298
b 202 260 277 278 279 296
b 203 224 241 242 243 260
b 204 243 260 261 262 279
b 205 148 163 165 167 182 186 201 203 205 220 224 241 258 275 294
b 206 163 182 186 201 203 205 220 224 239 241 258 275 294
b 207 163 182 201 218 220 235 239 258 275 294
b 208 163 182 199 201 218 235
b 209 199 217 218 235
b 210 163 181 182 199
b 211 182 199 200 201 218
b 212 201 218 220 235 239 256 258 275 294
b 213 239 256 257 258 275
b 214 201 218 220 235 237 239 256 275 294
b 215 201 218 219 220 237
b 216 218 235 237 256 275 292 294
b 217 218 235 237 256 273 275 292
b 218 218 235 237 254 256 273 292
b 219 218 235 236 237 254
b 220 235 254 273 291 292
b 221 235 253 254 273 291
b 222 253 254 272 273 291
b 223 237 254 255 256 273
b 224 256 273 274 275 292
b 225 275 292 293 294
b 226 220 237 238 239 256
b 227 186 203 205 220 222 224 239 241 258
b 228 203 220 221 222 239
b 229 205 222 223 224 241
b 230 222 239 240 241 258
b 231 186 203 204 205 222
b 232 148 165 167 182 184 186 201 203 220
b 233 165 182 183 184 201
b 234 184 201 202 203 220
b 235 148 165 166 167 184
b 236 167 184 185 186 203
b 237 114 131 133 148 152 167 169 171 186 188 205
b 238 169 186 187 188 205
b 239 152 169 170 171 188
b 240 114 131 133 148 150 152 167 169 186
b 241 131 148 149 150 167
b 242 133 150 151 152 169
b 243 114 131 132 133 150
b 244 150 167 168 169 186
b 245 188 205 206 207 224
b 246 288 305 306
b 247 271 289 290
b 248 17 18 36
1 2
2 4
3 248
3 5
4 120
5 85
6 247
6 8
7 246
7 9
8 222
9 178
10 11
11 119
11 12
12 118
12 13
13 117
13 14
14 116
14 15
15 115
15 16
16 114
16 17
17 113
17 18
18 112
18 19
19 21
19 20
21 106
21 22
22 105
22 23
23 34
23 24
24 33
24 32
24 25
25 26
25 27
25 28
28 29
28 30
28 31
34 52
34 35
35 39
35 36
36 38
36 37
39 47
39 40
40 42
40 43
40 41
43 46
43 44
43 45
47 51
47 48
47 49
47 50
52 54
52 53
54 67
54 55
55 61
55 56
56 59
56 60
56 58
56 57
61 125
61 62
62 65
62 66
62 64
62 63
67 98
67 68
68 69
68 91
69 70
69 90
70 71
70 89
70 72
72 88
72 73
73 74
73 75
73 76
76 77
76 78
78 79
78 80
80 87
80 81
81 83
81 82
81 86
83 84
84 85
91 92
91 93
91 94
94 95
94 96
94 97
98 101
98 99
98 100
101 102
101 103
101 104
106 110
106 111
106 107
107 108
107 109
119 120
121 125
122 127
123 128
124 137
124 136
124 129
125 129
126 245
126 138
126 127
127 128
128 132
129 130
130 133
130 131
131 237
131 132
133 134
133 135
138 139
138 194
139 141
139 140
141 151
141 142
142 143
142 146
143 144
143 145
146 147
146 148
146 150
146 149
151 184
151 152
152 153
152 160
153 154
153 159
153 155
155 156
155 158
155 157
160 181
160 161
161 163
161 162
161 164
164 180
164 165
165 166
165 167
167 168
167 169
169 179
169 170
170 171
170 172
172 173
172 174
174 175
174 176
176 177
177 178
181 183
181 182
184 193
184 192
184 185
185 191
185 186
185 187
187 188
187 189
187 190
194 195
194 205
195 203
195 204
195 196
196 198
196 197
196 199
199 200
199 201
199 202
205 232
205 206
206 207
206 227
207 208
207 212
208 210
208 209
208 211
212 213
212 214
214 215
214 226
214 216
216 225
216 217
217 224
217 218
218 220
218 219
218 223
220 221
221 222
227 228
227 231
227 230
227 229
232 233
232 235
232 234
232 236
237 238
237 239
237 240
240 243
240 244
240 241
240 242
